QPLIB_3733
LGQ
minimize
690 # number of variables
283 # number of constraints
0.0 # default value for linear coefficients in objective
46 # number of non-default linear coefficients in objective
1 1.235768455
2 1.754882812
3 3.159455914
4 3.980618566
5 2.905401043
6 2.524310515
7 3.289509208
8 1.235768455
9 2.516549044
10 2.174517481
11 2.402340784
12 1.754882812
13 3.153941476
14 2.649872155
15 2.46690751
16 3.159455914
17 2.46690751
18 1.583424277
19 3.980618566
20 3.153941476
21 1.572334903
22 2.905401043
23 2.516549044
24 1.572334903
25 1.097733808
26 2.174517481
27 1.097733808
28 2.95175038
29 2.477930353
30 1.425428344
31 2.95175038
32 1.694724004
33 2.524310515
34 1.694724004
35 3.787543429
36 1.759730596
37 2.402340784
38 1.583424277
39 2.477930353
40 3.787543429
41 1.492267639
42 3.289509208
43 2.649872155
44 1.425428344
45 1.759730596
46 1.492267639
0.0 # objective constant
138 # number of quadratic terms in all constraints
238 1852403556 1 586.0
238 1852403556 1 -586.0
238 1852403556 1 2.0
239 1768711012 50 384.0
239 1768711012 50 -384.0
239 1768711012 50 2.0
240 775173731 1 834.0
240 775173731 1 -834.0
240 775173731 1 2.0
241 1864396660 1651076122 854.0
241 1864396660 1651076122 -854.0
241 1864396660 1651076122 2.0
242 1852403556 824205172 590.0
242 1852403556 824205172 -590.0
242 1852403556 824205172 2.0
243 1768711012 12321 560.0
243 1768711012 12321 -560.0
243 1768711012 12321 2.0
244 775173731 1 674.0
244 775173731 1 -674.0
244 775173731 1 2.0
245 1931505524 1 586.0
245 1931505524 1 -586.0
245 1931505524 1 2.0
246 824209508 1 682.0
246 824209508 1 -682.0
246 824209508 1 2.0
247 1183199521 50 552.0
247 1183199521 50 -552.0
247 1183199521 50 2.0
248 32606 1 238.0
248 32606 1 -238.0
248 32606 1 2.0
249 1651076122 385 384.0
249 1651076122 385 -384.0
249 1651076122 385 2.0
250 1852403556 1 694.0
250 1852403556 1 -694.0
250 1852403556 1 2.0
251 1768711012 50 796.0
251 1768711012 50 -796.0
251 1768711012 50 2.0
252 775173731 1 718.0
252 775173731 1 -718.0
252 775173731 1 2.0
253 1931505524 1651076121 834.0
253 1931505524 1651076121 -834.0
253 1931505524 1651076121 2.0
254 1684959076 824209508 718.0
254 1684959076 824209508 -718.0
254 1684959076 824209508 2.0
255 1651076196 1183199521 386.0
255 1651076196 1183199521 -386.0
255 1651076196 1183199521 2.0
256 1932407863 32606 854.0
256 1932407863 32606 -854.0
256 1932407863 32606 2.0
257 1868767344 385 694.0
257 1868767344 385 -694.0
257 1868767344 385 2.0
258 540090479 1 436.0
258 540090479 1 -436.0
258 540090479 1 2.0
259 50 50 590.0
259 50 50 -590.0
259 50 50 2.0
260 1 1 682.0
260 1 1 -682.0
260 1 1 2.0
261 1651076121 7803377 436.0
261 1651076121 7803377 -436.0
261 1651076121 7803377 2.0
262 1684959076 1 268.0
262 1684959076 1 -268.0
262 1684959076 1 2.0
263 1651076196 50 552.0
263 1651076196 50 -552.0
263 1651076196 50 2.0
264 1932407863 1 268.0
264 1932407863 1 -268.0
264 1932407863 1 2.0
265 1868767344 1651076121 400.0
265 1868767344 1651076121 -400.0
265 1868767344 1651076121 2.0
266 1684959076 540090479 444.0
266 1684959076 540090479 -444.0
266 1684959076 540090479 2.0
267 1651076196 50 392.0
267 1651076196 50 -392.0
267 1651076196 50 2.0
268 1932407863 1 400.0
268 1932407863 1 -400.0
268 1932407863 1 2.0
269 1868767344 7803377 258.0
269 1868767344 7803377 -258.0
269 1868767344 7803377 2.0
270 540090479 1 560.0
270 540090479 1 -560.0
270 540090479 1 2.0
271 1183216178 50 258.0
271 1183216178 50 -258.0
271 1183216178 50 2.0
272 32606 1 764.0
272 32606 1 -764.0
272 32606 1 2.0
273 1651076121 481 848.0
273 1651076121 481 -848.0
273 1651076121 481 2.0
274 1684959076 1 238.0
274 1684959076 1 -238.0
274 1684959076 1 2.0
275 1651076196 50 386.0
275 1651076196 50 -386.0
275 1651076196 50 2.0
276 1932407863 1 444.0
276 1932407863 1 -444.0
276 1932407863 1 2.0
277 1868767344 1651076121 764.0
277 1868767344 1651076121 -764.0
277 1868767344 1651076121 2.0
278 1681157988 540090479 550.0
278 1681157988 540090479 -550.0
278 1681157988 540090479 2.0
279 1651076196 1183216178 674.0
279 1651076196 1183216178 -674.0
279 1651076196 1183216178 2.0
280 1932407863 32606 796.0
280 1932407863 32606 -796.0
280 1932407863 32606 2.0
281 1868767344 481 392.0
281 1868767344 481 -392.0
281 1868767344 481 2.0
282 540090421 1 848.0
282 540090421 1 -848.0
282 540090421 1 2.0
283 2097 50 550.0
283 2097 50 -550.0
283 2097 50 2.0
2346 # number of linear terms in all constraints
1 47 -1.0
1 48 -1.0
1 49 -1.0
1 50 -1.0
1 51 -1.0
1 52 -1.0
1 53 -1.0
1 54 1.0
1 55 1.0
1 56 1.0
1 57 1.0
1 58 1.0
1 59 1.0
1 60 1.0
2 61 -1.0
2 62 -1.0
2 63 -1.0
2 64 -1.0
2 65 -1.0
2 66 -1.0
2 67 -1.0
2 68 1.0
2 69 1.0
2 70 1.0
2 71 1.0
2 72 1.0
2 73 1.0
2 74 1.0
3 75 -1.0
3 76 -1.0
3 77 -1.0
3 78 -1.0
3 79 -1.0
3 80 -1.0
3 81 -1.0
3 82 1.0
3 83 1.0
3 84 1.0
3 85 1.0
3 86 1.0
3 87 1.0
3 88 1.0
4 89 -1.0
4 90 -1.0
4 91 -1.0
4 92 -1.0
4 93 -1.0
4 94 -1.0
4 95 -1.0
4 96 1.0
4 97 1.0
4 98 1.0
4 99 1.0
4 100 1.0
4 101 1.0
4 102 1.0
5 103 -1.0
5 104 -1.0
5 105 -1.0
5 106 -1.0
5 107 -1.0
5 108 -1.0
5 109 -1.0
5 110 1.0
5 111 1.0
5 112 1.0
5 113 1.0
5 114 1.0
5 115 1.0
5 116 1.0
6 117 -1.0
6 118 -1.0
6 119 -1.0
6 120 -1.0
6 121 -1.0
6 122 -1.0
6 123 -1.0
6 124 1.0
6 125 1.0
6 126 1.0
6 127 1.0
6 128 1.0
6 129 1.0
6 130 1.0
7 131 -1.0
7 132 -1.0
7 133 -1.0
7 134 -1.0
7 135 -1.0
7 136 -1.0
7 137 -1.0
7 138 1.0
7 139 1.0
7 140 1.0
7 141 1.0
7 142 1.0
7 143 1.0
7 144 1.0
8 145 -1.0
8 146 -1.0
8 147 -1.0
8 148 -1.0
8 149 -1.0
8 150 -1.0
8 151 -1.0
8 152 1.0
8 153 1.0
8 154 1.0
8 155 1.0
8 156 1.0
8 157 1.0
8 158 1.0
9 159 -1.0
9 160 -1.0
9 161 -1.0
9 162 -1.0
9 163 -1.0
9 164 -1.0
9 165 -1.0
9 166 1.0
9 167 1.0
9 168 1.0
9 169 1.0
9 170 1.0
9 171 1.0
9 172 1.0
10 173 -1.0
10 174 -1.0
10 175 -1.0
10 176 -1.0
10 177 -1.0
10 178 -1.0
10 179 -1.0
10 180 1.0
10 181 1.0
10 182 1.0
10 183 1.0
10 184 1.0
10 185 1.0
10 186 1.0
11 187 -1.0
11 188 -1.0
11 189 -1.0
11 190 -1.0
11 191 -1.0
11 192 -1.0
11 193 -1.0
11 194 1.0
11 195 1.0
11 196 1.0
11 197 1.0
11 198 1.0
11 199 1.0
11 200 1.0
12 201 -1.0
12 202 -1.0
12 203 -1.0
12 204 -1.0
12 205 -1.0
12 206 -1.0
12 207 -1.0
12 208 1.0
12 209 1.0
12 210 1.0
12 211 1.0
12 212 1.0
12 213 1.0
12 214 1.0
13 47 1.0
13 54 -1.0
13 215 -1.0
13 216 -1.0
13 217 -1.0
13 218 1.0
13 219 1.0
13 220 1.0
14 61 1.0
14 68 -1.0
14 221 -1.0
14 222 -1.0
14 223 -1.0
14 224 1.0
14 225 1.0
14 226 1.0
15 75 1.0
15 82 -1.0
15 227 -1.0
15 228 -1.0
15 229 -1.0
15 230 1.0
15 231 1.0
15 232 1.0
16 89 1.0
16 96 -1.0
16 233 -1.0
16 234 -1.0
16 235 -1.0
16 236 1.0
16 237 1.0
16 238 1.0
17 103 1.0
17 110 -1.0
17 239 -1.0
17 240 -1.0
17 241 -1.0
17 242 1.0
17 243 1.0
17 244 1.0
18 117 1.0
18 124 -1.0
18 245 -1.0
18 246 -1.0
18 247 -1.0
18 248 1.0
18 249 1.0
18 250 1.0
19 131 1.0
19 138 -1.0
19 251 -1.0
19 252 -1.0
19 253 -1.0
19 254 1.0
19 255 1.0
19 256 1.0
20 145 1.0
20 152 -1.0
20 257 -1.0
20 258 -1.0
20 259 -1.0
20 260 1.0
20 261 1.0
20 262 1.0
21 159 1.0
21 166 -1.0
21 263 -1.0
21 264 -1.0
21 265 -1.0
21 266 1.0
21 267 1.0
21 268 1.0
22 173 1.0
22 180 -1.0
22 269 -1.0
22 270 -1.0
22 271 -1.0
22 272 1.0
22 273 1.0
22 274 1.0
23 187 1.0
23 194 -1.0
23 275 -1.0
23 276 -1.0
23 277 -1.0
23 278 1.0
23 279 1.0
23 280 1.0
24 201 1.0
24 208 -1.0
24 281 -1.0
24 282 -1.0
24 283 -1.0
24 284 1.0
24 285 1.0
24 286 1.0
25 48 1.0
25 55 -1.0
25 287 -1.0
25 288 -1.0
25 289 1.0
25 290 1.0
26 62 1.0
26 69 -1.0
26 291 -1.0
26 292 -1.0
26 293 1.0
26 294 1.0
27 76 1.0
27 83 -1.0
27 295 -1.0
27 296 -1.0
27 297 1.0
27 298 1.0
28 90 1.0
28 97 -1.0
28 299 -1.0
28 300 -1.0
28 301 1.0
28 302 1.0
29 104 1.0
29 111 -1.0
29 303 -1.0
29 304 -1.0
29 305 1.0
29 306 1.0
30 118 1.0
30 125 -1.0
30 307 -1.0
30 308 -1.0
30 309 1.0
30 310 1.0
31 132 1.0
31 139 -1.0
31 311 -1.0
31 312 -1.0
31 313 1.0
31 314 1.0
32 146 1.0
32 153 -1.0
32 315 -1.0
32 316 -1.0
32 317 1.0
32 318 1.0
33 160 1.0
33 167 -1.0
33 319 -1.0
33 320 -1.0
33 321 1.0
33 322 1.0
34 174 1.0
34 181 -1.0
34 323 -1.0
34 324 -1.0
34 325 1.0
34 326 1.0
35 188 1.0
35 195 -1.0
35 327 -1.0
35 328 -1.0
35 329 1.0
35 330 1.0
36 202 1.0
36 209 -1.0
36 331 -1.0
36 332 -1.0
36 333 1.0
36 334 1.0
37 335 -1.0
37 336 1.0
38 337 -1.0
38 338 1.0
39 339 -1.0
39 340 1.0
40 341 -1.0
40 342 1.0
41 343 -1.0
41 344 1.0
42 345 -1.0
42 346 1.0
43 347 -1.0
43 348 1.0
44 349 -1.0
44 350 1.0
45 351 -1.0
45 352 1.0
46 353 -1.0
46 354 1.0
47 355 -1.0
47 356 1.0
48 357 -1.0
48 358 1.0
49 49 1.0
49 56 -1.0
49 335 1.0
49 336 -1.0
49 359 -1.0
49 360 1.0
50 63 1.0
50 70 -1.0
50 337 1.0
50 338 -1.0
50 361 -1.0
50 362 1.0
51 77 1.0
51 84 -1.0
51 339 1.0
51 340 -1.0
51 363 -1.0
51 364 1.0
52 91 1.0
52 98 -1.0
52 341 1.0
52 342 -1.0
52 365 -1.0
52 366 1.0
53 105 1.0
53 112 -1.0
53 343 1.0
53 344 -1.0
53 367 -1.0
53 368 1.0
54 119 1.0
54 126 -1.0
54 345 1.0
54 346 -1.0
54 369 -1.0
54 370 1.0
55 133 1.0
55 140 -1.0
55 347 1.0
55 348 -1.0
55 371 -1.0
55 372 1.0
56 147 1.0
56 154 -1.0
56 349 1.0
56 350 -1.0
56 373 -1.0
56 374 1.0
57 161 1.0
57 168 -1.0
57 351 1.0
57 352 -1.0
57 375 -1.0
57 376 1.0
58 175 1.0
58 182 -1.0
58 353 1.0
58 354 -1.0
58 377 -1.0
58 378 1.0
59 189 1.0
59 196 -1.0
59 355 1.0
59 356 -1.0
59 379 -1.0
59 380 1.0
60 203 1.0
60 210 -1.0
60 357 1.0
60 358 -1.0
60 381 -1.0
60 382 1.0
61 50 1.0
61 57 -1.0
61 287 1.0
61 289 -1.0
61 383 -1.0
61 384 1.0
62 64 1.0
62 71 -1.0
62 291 1.0
62 293 -1.0
62 385 -1.0
62 386 1.0
63 78 1.0
63 85 -1.0
63 295 1.0
63 297 -1.0
63 387 -1.0
63 388 1.0
64 92 1.0
64 99 -1.0
64 299 1.0
64 301 -1.0
64 389 -1.0
64 390 1.0
65 106 1.0
65 113 -1.0
65 303 1.0
65 305 -1.0
65 391 -1.0
65 392 1.0
66 120 1.0
66 127 -1.0
66 307 1.0
66 309 -1.0
66 393 -1.0
66 394 1.0
67 134 1.0
67 141 -1.0
67 311 1.0
67 313 -1.0
67 395 -1.0
67 396 1.0
68 148 1.0
68 155 -1.0
68 315 1.0
68 317 -1.0
68 397 -1.0
68 398 1.0
69 162 1.0
69 169 -1.0
69 319 1.0
69 321 -1.0
69 399 -1.0
69 400 1.0
70 176 1.0
70 183 -1.0
70 323 1.0
70 325 -1.0
70 401 -1.0
70 402 1.0
71 190 1.0
71 197 -1.0
71 327 1.0
71 329 -1.0
71 403 -1.0
71 404 1.0
72 204 1.0
72 211 -1.0
72 331 1.0
72 333 -1.0
72 405 -1.0
72 406 1.0
73 51 1.0
73 58 -1.0
73 215 1.0
73 218 -1.0
73 383 1.0
73 384 -1.0
73 407 -1.0
73 408 1.0
74 65 1.0
74 72 -1.0
74 221 1.0
74 224 -1.0
74 385 1.0
74 386 -1.0
74 409 -1.0
74 410 1.0
75 79 1.0
75 86 -1.0
75 227 1.0
75 230 -1.0
75 387 1.0
75 388 -1.0
75 411 -1.0
75 412 1.0
76 93 1.0
76 100 -1.0
76 233 1.0
76 236 -1.0
76 389 1.0
76 390 -1.0
76 413 -1.0
76 414 1.0
77 107 1.0
77 114 -1.0
77 239 1.0
77 242 -1.0
77 391 1.0
77 392 -1.0
77 415 -1.0
77 416 1.0
78 121 1.0
78 128 -1.0
78 245 1.0
78 248 -1.0
78 393 1.0
78 394 -1.0
78 417 -1.0
78 418 1.0
79 135 1.0
79 142 -1.0
79 251 1.0
79 254 -1.0
79 395 1.0
79 396 -1.0
79 419 -1.0
79 420 1.0
80 149 1.0
80 156 -1.0
80 257 1.0
80 260 -1.0
80 397 1.0
80 398 -1.0
80 421 -1.0
80 422 1.0
81 163 1.0
81 170 -1.0
81 263 1.0
81 266 -1.0
81 399 1.0
81 400 -1.0
81 423 -1.0
81 424 1.0
82 177 1.0
82 184 -1.0
82 269 1.0
82 272 -1.0
82 401 1.0
82 402 -1.0
82 425 -1.0
82 426 1.0
83 191 1.0
83 198 -1.0
83 275 1.0
83 278 -1.0
83 403 1.0
83 404 -1.0
83 427 -1.0
83 428 1.0
84 205 1.0
84 212 -1.0
84 281 1.0
84 284 -1.0
84 405 1.0
84 406 -1.0
84 429 -1.0
84 430 1.0
85 216 1.0
85 219 -1.0
85 407 1.0
85 408 -1.0
85 431 -1.0
85 432 -1.0
85 433 -1.0
85 434 1.0
85 435 1.0
85 436 1.0
86 222 1.0
86 225 -1.0
86 409 1.0
86 410 -1.0
86 437 -1.0
86 438 -1.0
86 439 -1.0
86 440 1.0
86 441 1.0
86 442 1.0
87 228 1.0
87 231 -1.0
87 411 1.0
87 412 -1.0
87 443 -1.0
87 444 -1.0
87 445 -1.0
87 446 1.0
87 447 1.0
87 448 1.0
88 234 1.0
88 237 -1.0
88 413 1.0
88 414 -1.0
88 449 -1.0
88 450 -1.0
88 451 -1.0
88 452 1.0
88 453 1.0
88 454 1.0
89 240 1.0
89 243 -1.0
89 415 1.0
89 416 -1.0
89 455 -1.0
89 456 -1.0
89 457 -1.0
89 458 1.0
89 459 1.0
89 460 1.0
90 246 1.0
90 249 -1.0
90 417 1.0
90 418 -1.0
90 461 -1.0
90 462 -1.0
90 463 -1.0
90 464 1.0
90 465 1.0
90 466 1.0
91 252 1.0
91 255 -1.0
91 419 1.0
91 420 -1.0
91 467 -1.0
91 468 -1.0
91 469 -1.0
91 470 1.0
91 471 1.0
91 472 1.0
92 258 1.0
92 261 -1.0
92 421 1.0
92 422 -1.0
92 473 -1.0
92 474 -1.0
92 475 -1.0
92 476 1.0
92 477 1.0
92 478 1.0
93 264 1.0
93 267 -1.0
93 423 1.0
93 424 -1.0
93 479 -1.0
93 480 -1.0
93 481 -1.0
93 482 1.0
93 483 1.0
93 484 1.0
94 270 1.0
94 273 -1.0
94 425 1.0
94 426 -1.0
94 485 -1.0
94 486 -1.0
94 487 -1.0
94 488 1.0
94 489 1.0
94 490 1.0
95 276 1.0
95 279 -1.0
95 427 1.0
95 428 -1.0
95 491 -1.0
95 492 -1.0
95 493 -1.0
95 494 1.0
95 495 1.0
95 496 1.0
96 282 1.0
96 285 -1.0
96 429 1.0
96 430 -1.0
96 497 -1.0
96 498 -1.0
96 499 -1.0
96 500 1.0
96 501 1.0
96 502 1.0
97 431 1.0
97 434 -1.0
97 503 -1.0
97 504 1.0
98 437 1.0
98 440 -1.0
98 505 -1.0
98 506 1.0
99 443 1.0
99 446 -1.0
99 507 -1.0
99 508 1.0
100 449 1.0
100 452 -1.0
100 509 -1.0
100 510 1.0
101 455 1.0
101 458 -1.0
101 511 -1.0
101 512 1.0
102 461 1.0
102 464 -1.0
102 513 -1.0
102 514 1.0
103 467 1.0
103 470 -1.0
103 515 -1.0
103 516 1.0
104 473 1.0
104 476 -1.0
104 517 -1.0
104 518 1.0
105 479 1.0
105 482 -1.0
105 519 -1.0
105 520 1.0
106 485 1.0
106 488 -1.0
106 521 -1.0
106 522 1.0
107 491 1.0
107 494 -1.0
107 523 -1.0
107 524 1.0
108 497 1.0
108 500 -1.0
108 525 -1.0
108 526 1.0
109 52 1.0
109 59 -1.0
109 503 1.0
109 504 -1.0
109 527 -1.0
109 528 -1.0
109 529 1.0
109 530 1.0
110 66 1.0
110 73 -1.0
110 505 1.0
110 506 -1.0
110 531 -1.0
110 532 -1.0
110 533 1.0
110 534 1.0
111 80 1.0
111 87 -1.0
111 507 1.0
111 508 -1.0
111 535 -1.0
111 536 -1.0
111 537 1.0
111 538 1.0
112 94 1.0
112 101 -1.0
112 509 1.0
112 510 -1.0
112 539 -1.0
112 540 -1.0
112 541 1.0
112 542 1.0
113 108 1.0
113 115 -1.0
113 511 1.0
113 512 -1.0
113 543 -1.0
113 544 -1.0
113 545 1.0
113 546 1.0
114 122 1.0
114 129 -1.0
114 513 1.0
114 514 -1.0
114 547 -1.0
114 548 -1.0
114 549 1.0
114 550 1.0
115 136 1.0
115 143 -1.0
115 515 1.0
115 516 -1.0
115 551 -1.0
115 552 -1.0
115 553 1.0
115 554 1.0
116 150 1.0
116 157 -1.0
116 517 1.0
116 518 -1.0
116 555 -1.0
116 556 -1.0
116 557 1.0
116 558 1.0
117 164 1.0
117 171 -1.0
117 519 1.0
117 520 -1.0
117 559 -1.0
117 560 -1.0
117 561 1.0
117 562 1.0
118 178 1.0
118 185 -1.0
118 521 1.0
118 522 -1.0
118 563 -1.0
118 564 -1.0
118 565 1.0
118 566 1.0
119 192 1.0
119 199 -1.0
119 523 1.0
119 524 -1.0
119 567 -1.0
119 568 -1.0
119 569 1.0
119 570 1.0
120 206 1.0
120 213 -1.0
120 525 1.0
120 526 -1.0
120 571 -1.0
120 572 -1.0
120 573 1.0
120 574 1.0
121 217 1.0
121 220 -1.0
121 359 1.0
121 360 -1.0
121 432 1.0
121 435 -1.0
121 527 1.0
121 529 -1.0
121 575 -1.0
121 576 1.0
122 223 1.0
122 226 -1.0
122 361 1.0
122 362 -1.0
122 438 1.0
122 441 -1.0
122 531 1.0
122 533 -1.0
122 577 -1.0
122 578 1.0
123 229 1.0
123 232 -1.0
123 363 1.0
123 364 -1.0
123 444 1.0
123 447 -1.0
123 535 1.0
123 537 -1.0
123 579 -1.0
123 580 1.0
124 235 1.0
124 238 -1.0
124 365 1.0
124 366 -1.0
124 450 1.0
124 453 -1.0
124 539 1.0
124 541 -1.0
124 581 -1.0
124 582 1.0
125 241 1.0
125 244 -1.0
125 367 1.0
125 368 -1.0
125 456 1.0
125 459 -1.0
125 543 1.0
125 545 -1.0
125 583 -1.0
125 584 1.0
126 247 1.0
126 250 -1.0
126 369 1.0
126 370 -1.0
126 462 1.0
126 465 -1.0
126 547 1.0
126 549 -1.0
126 585 -1.0
126 586 1.0
127 253 1.0
127 256 -1.0
127 371 1.0
127 372 -1.0
127 468 1.0
127 471 -1.0
127 551 1.0
127 553 -1.0
127 587 -1.0
127 588 1.0
128 259 1.0
128 262 -1.0
128 373 1.0
128 374 -1.0
128 474 1.0
128 477 -1.0
128 555 1.0
128 557 -1.0
128 589 -1.0
128 590 1.0
129 265 1.0
129 268 -1.0
129 375 1.0
129 376 -1.0
129 480 1.0
129 483 -1.0
129 559 1.0
129 561 -1.0
129 591 -1.0
129 592 1.0
130 271 1.0
130 274 -1.0
130 377 1.0
130 378 -1.0
130 486 1.0
130 489 -1.0
130 563 1.0
130 565 -1.0
130 593 -1.0
130 594 1.0
131 277 1.0
131 280 -1.0
131 379 1.0
131 380 -1.0
131 492 1.0
131 495 -1.0
131 567 1.0
131 569 -1.0
131 595 -1.0
131 596 1.0
132 283 1.0
132 286 -1.0
132 381 1.0
132 382 -1.0
132 498 1.0
132 501 -1.0
132 571 1.0
132 573 -1.0
132 597 -1.0
132 598 1.0
133 53 1.0
133 60 -1.0
133 288 1.0
133 290 -1.0
133 433 1.0
133 436 -1.0
133 528 1.0
133 530 -1.0
133 575 1.0
133 576 -1.0
134 67 1.0
134 74 -1.0
134 292 1.0
134 294 -1.0
134 439 1.0
134 442 -1.0
134 532 1.0
134 534 -1.0
134 577 1.0
134 578 -1.0
135 81 1.0
135 88 -1.0
135 296 1.0
135 298 -1.0
135 445 1.0
135 448 -1.0
135 536 1.0
135 538 -1.0
135 579 1.0
135 580 -1.0
136 95 1.0
136 102 -1.0
136 300 1.0
136 302 -1.0
136 451 1.0
136 454 -1.0
136 540 1.0
136 542 -1.0
136 581 1.0
136 582 -1.0
137 109 1.0
137 116 -1.0
137 304 1.0
137 306 -1.0
137 457 1.0
137 460 -1.0
137 544 1.0
137 546 -1.0
137 583 1.0
137 584 -1.0
138 123 1.0
138 130 -1.0
138 308 1.0
138 310 -1.0
138 463 1.0
138 466 -1.0
138 548 1.0
138 550 -1.0
138 585 1.0
138 586 -1.0
139 137 1.0
139 144 -1.0
139 312 1.0
139 314 -1.0
139 469 1.0
139 472 -1.0
139 552 1.0
139 554 -1.0
139 587 1.0
139 588 -1.0
140 151 1.0
140 158 -1.0
140 316 1.0
140 318 -1.0
140 475 1.0
140 478 -1.0
140 556 1.0
140 558 -1.0
140 589 1.0
140 590 -1.0
141 165 1.0
141 172 -1.0
141 320 1.0
141 322 -1.0
141 481 1.0
141 484 -1.0
141 560 1.0
141 562 -1.0
141 591 1.0
141 592 -1.0
142 179 1.0
142 186 -1.0
142 324 1.0
142 326 -1.0
142 487 1.0
142 490 -1.0
142 564 1.0
142 566 -1.0
142 593 1.0
142 594 -1.0
143 193 1.0
143 200 -1.0
143 328 1.0
143 330 -1.0
143 493 1.0
143 496 -1.0
143 568 1.0
143 570 -1.0
143 595 1.0
143 596 -1.0
144 207 1.0
144 214 -1.0
144 332 1.0
144 334 -1.0
144 499 1.0
144 502 -1.0
144 572 1.0
144 574 -1.0
144 597 1.0
144 598 -1.0
145 47 -1.0
145 61 -1.0
145 75 -1.0
145 89 -1.0
145 103 -1.0
145 117 -1.0
145 131 -1.0
145 145 -1.0
145 159 -1.0
145 173 -1.0
145 187 -1.0
145 201 -1.0
145 599 1.0
146 48 -1.0
146 62 -1.0
146 76 -1.0
146 90 -1.0
146 104 -1.0
146 118 -1.0
146 132 -1.0
146 146 -1.0
146 160 -1.0
146 174 -1.0
146 188 -1.0
146 202 -1.0
146 600 1.0
147 49 -1.0
147 63 -1.0
147 77 -1.0
147 91 -1.0
147 105 -1.0
147 119 -1.0
147 133 -1.0
147 147 -1.0
147 161 -1.0
147 175 -1.0
147 189 -1.0
147 203 -1.0
147 601 1.0
148 50 -1.0
148 64 -1.0
148 78 -1.0
148 92 -1.0
148 106 -1.0
148 120 -1.0
148 134 -1.0
148 148 -1.0
148 162 -1.0
148 176 -1.0
148 190 -1.0
148 204 -1.0
148 602 1.0
149 51 -1.0
149 65 -1.0
149 79 -1.0
149 93 -1.0
149 107 -1.0
149 121 -1.0
149 135 -1.0
149 149 -1.0
149 163 -1.0
149 177 -1.0
149 191 -1.0
149 205 -1.0
149 603 1.0
150 52 -1.0
150 66 -1.0
150 80 -1.0
150 94 -1.0
150 108 -1.0
150 122 -1.0
150 136 -1.0
150 150 -1.0
150 164 -1.0
150 178 -1.0
150 192 -1.0
150 206 -1.0
150 604 1.0
151 53 -1.0
151 67 -1.0
151 81 -1.0
151 95 -1.0
151 109 -1.0
151 123 -1.0
151 137 -1.0
151 151 -1.0
151 165 -1.0
151 179 -1.0
151 193 -1.0
151 207 -1.0
151 605 1.0
152 54 -1.0
152 68 -1.0
152 82 -1.0
152 96 -1.0
152 110 -1.0
152 124 -1.0
152 138 -1.0
152 152 -1.0
152 166 -1.0
152 180 -1.0
152 194 -1.0
152 208 -1.0
152 606 1.0
153 215 -1.0
153 221 -1.0
153 227 -1.0
153 233 -1.0
153 239 -1.0
153 245 -1.0
153 251 -1.0
153 257 -1.0
153 263 -1.0
153 269 -1.0
153 275 -1.0
153 281 -1.0
153 607 1.0
154 216 -1.0
154 222 -1.0
154 228 -1.0
154 234 -1.0
154 240 -1.0
154 246 -1.0
154 252 -1.0
154 258 -1.0
154 264 -1.0
154 270 -1.0
154 276 -1.0
154 282 -1.0
154 608 1.0
155 217 -1.0
155 223 -1.0
155 229 -1.0
155 235 -1.0
155 241 -1.0
155 247 -1.0
155 253 -1.0
155 259 -1.0
155 265 -1.0
155 271 -1.0
155 277 -1.0
155 283 -1.0
155 609 1.0
156 55 -1.0
156 69 -1.0
156 83 -1.0
156 97 -1.0
156 111 -1.0
156 125 -1.0
156 139 -1.0
156 153 -1.0
156 167 -1.0
156 181 -1.0
156 195 -1.0
156 209 -1.0
156 610 1.0
157 287 -1.0
157 291 -1.0
157 295 -1.0
157 299 -1.0
157 303 -1.0
157 307 -1.0
157 311 -1.0
157 315 -1.0
157 319 -1.0
157 323 -1.0
157 327 -1.0
157 331 -1.0
157 611 1.0
158 288 -1.0
158 292 -1.0
158 296 -1.0
158 300 -1.0
158 304 -1.0
158 308 -1.0
158 312 -1.0
158 316 -1.0
158 320 -1.0
158 324 -1.0
158 328 -1.0
158 332 -1.0
158 612 1.0
159 335 -1.0
159 337 -1.0
159 339 -1.0
159 341 -1.0
159 343 -1.0
159 345 -1.0
159 347 -1.0
159 349 -1.0
159 351 -1.0
159 353 -1.0
159 355 -1.0
159 357 -1.0
159 613 1.0
160 56 -1.0
160 70 -1.0
160 84 -1.0
160 98 -1.0
160 112 -1.0
160 126 -1.0
160 140 -1.0
160 154 -1.0
160 168 -1.0
160 182 -1.0
160 196 -1.0
160 210 -1.0
160 614 1.0
161 336 -1.0
161 338 -1.0
161 340 -1.0
161 342 -1.0
161 344 -1.0
161 346 -1.0
161 348 -1.0
161 350 -1.0
161 352 -1.0
161 354 -1.0
161 356 -1.0
161 358 -1.0
161 615 1.0
162 359 -1.0
162 361 -1.0
162 363 -1.0
162 365 -1.0
162 367 -1.0
162 369 -1.0
162 371 -1.0
162 373 -1.0
162 375 -1.0
162 377 -1.0
162 379 -1.0
162 381 -1.0
162 616 1.0
163 57 -1.0
163 71 -1.0
163 85 -1.0
163 99 -1.0
163 113 -1.0
163 127 -1.0
163 141 -1.0
163 155 -1.0
163 169 -1.0
163 183 -1.0
163 197 -1.0
163 211 -1.0
163 617 1.0
164 289 -1.0
164 293 -1.0
164 297 -1.0
164 301 -1.0
164 305 -1.0
164 309 -1.0
164 313 -1.0
164 317 -1.0
164 321 -1.0
164 325 -1.0
164 329 -1.0
164 333 -1.0
164 618 1.0
165 383 -1.0
165 385 -1.0
165 387 -1.0
165 389 -1.0
165 391 -1.0
165 393 -1.0
165 395 -1.0
165 397 -1.0
165 399 -1.0
165 401 -1.0
165 403 -1.0
165 405 -1.0
165 619 1.0
166 58 -1.0
166 72 -1.0
166 86 -1.0
166 100 -1.0
166 114 -1.0
166 128 -1.0
166 142 -1.0
166 156 -1.0
166 170 -1.0
166 184 -1.0
166 198 -1.0
166 212 -1.0
166 620 1.0
167 218 -1.0
167 224 -1.0
167 230 -1.0
167 236 -1.0
167 242 -1.0
167 248 -1.0
167 254 -1.0
167 260 -1.0
167 266 -1.0
167 272 -1.0
167 278 -1.0
167 284 -1.0
167 621 1.0
168 384 -1.0
168 386 -1.0
168 388 -1.0
168 390 -1.0
168 392 -1.0
168 394 -1.0
168 396 -1.0
168 398 -1.0
168 400 -1.0
168 402 -1.0
168 404 -1.0
168 406 -1.0
168 622 1.0
169 407 -1.0
169 409 -1.0
169 411 -1.0
169 413 -1.0
169 415 -1.0
169 417 -1.0
169 419 -1.0
169 421 -1.0
169 423 -1.0
169 425 -1.0
169 427 -1.0
169 429 -1.0
169 623 1.0
170 219 -1.0
170 225 -1.0
170 231 -1.0
170 237 -1.0
170 243 -1.0
170 249 -1.0
170 255 -1.0
170 261 -1.0
170 267 -1.0
170 273 -1.0
170 279 -1.0
170 285 -1.0
170 624 1.0
171 408 -1.0
171 410 -1.0
171 412 -1.0
171 414 -1.0
171 416 -1.0
171 418 -1.0
171 420 -1.0
171 422 -1.0
171 424 -1.0
171 426 -1.0
171 428 -1.0
171 430 -1.0
171 625 1.0
172 431 -1.0
172 437 -1.0
172 443 -1.0
172 449 -1.0
172 455 -1.0
172 461 -1.0
172 467 -1.0
172 473 -1.0
172 479 -1.0
172 485 -1.0
172 491 -1.0
172 497 -1.0
172 626 1.0
173 432 -1.0
173 438 -1.0
173 444 -1.0
173 450 -1.0
173 456 -1.0
173 462 -1.0
173 468 -1.0
173 474 -1.0
173 480 -1.0
173 486 -1.0
173 492 -1.0
173 498 -1.0
173 627 1.0
174 433 -1.0
174 439 -1.0
174 445 -1.0
174 451 -1.0
174 457 -1.0
174 463 -1.0
174 469 -1.0
174 475 -1.0
174 481 -1.0
174 487 -1.0
174 493 -1.0
174 499 -1.0
174 628 1.0
175 434 -1.0
175 440 -1.0
175 446 -1.0
175 452 -1.0
175 458 -1.0
175 464 -1.0
175 470 -1.0
175 476 -1.0
175 482 -1.0
175 488 -1.0
175 494 -1.0
175 500 -1.0
175 629 1.0
176 503 -1.0
176 505 -1.0
176 507 -1.0
176 509 -1.0
176 511 -1.0
176 513 -1.0
176 515 -1.0
176 517 -1.0
176 519 -1.0
176 521 -1.0
176 523 -1.0
176 525 -1.0
176 630 1.0
177 59 -1.0
177 73 -1.0
177 87 -1.0
177 101 -1.0
177 115 -1.0
177 129 -1.0
177 143 -1.0
177 157 -1.0
177 171 -1.0
177 185 -1.0
177 199 -1.0
177 213 -1.0
177 631 1.0
178 504 -1.0
178 506 -1.0
178 508 -1.0
178 510 -1.0
178 512 -1.0
178 514 -1.0
178 516 -1.0
178 518 -1.0
178 520 -1.0
178 522 -1.0
178 524 -1.0
178 526 -1.0
178 632 1.0
179 527 -1.0
179 531 -1.0
179 535 -1.0
179 539 -1.0
179 543 -1.0
179 547 -1.0
179 551 -1.0
179 555 -1.0
179 559 -1.0
179 563 -1.0
179 567 -1.0
179 571 -1.0
179 633 1.0
180 528 -1.0
180 532 -1.0
180 536 -1.0
180 540 -1.0
180 544 -1.0
180 548 -1.0
180 552 -1.0
180 556 -1.0
180 560 -1.0
180 564 -1.0
180 568 -1.0
180 572 -1.0
180 634 1.0
181 220 -1.0
181 226 -1.0
181 232 -1.0
181 238 -1.0
181 244 -1.0
181 250 -1.0
181 256 -1.0
181 262 -1.0
181 268 -1.0
181 274 -1.0
181 280 -1.0
181 286 -1.0
181 635 1.0
182 360 -1.0
182 362 -1.0
182 364 -1.0
182 366 -1.0
182 368 -1.0
182 370 -1.0
182 372 -1.0
182 374 -1.0
182 376 -1.0
182 378 -1.0
182 380 -1.0
182 382 -1.0
182 636 1.0
183 435 -1.0
183 441 -1.0
183 447 -1.0
183 453 -1.0
183 459 -1.0
183 465 -1.0
183 471 -1.0
183 477 -1.0
183 483 -1.0
183 489 -1.0
183 495 -1.0
183 501 -1.0
183 637 1.0
184 529 -1.0
184 533 -1.0
184 537 -1.0
184 541 -1.0
184 545 -1.0
184 549 -1.0
184 553 -1.0
184 557 -1.0
184 561 -1.0
184 565 -1.0
184 569 -1.0
184 573 -1.0
184 638 1.0
185 575 -1.0
185 577 -1.0
185 579 -1.0
185 581 -1.0
185 583 -1.0
185 585 -1.0
185 587 -1.0
185 589 -1.0
185 591 -1.0
185 593 -1.0
185 595 -1.0
185 597 -1.0
185 639 1.0
186 60 -1.0
186 74 -1.0
186 88 -1.0
186 102 -1.0
186 116 -1.0
186 130 -1.0
186 144 -1.0
186 158 -1.0
186 172 -1.0
186 186 -1.0
186 200 -1.0
186 214 -1.0
186 640 1.0
187 290 -1.0
187 294 -1.0
187 298 -1.0
187 302 -1.0
187 306 -1.0
187 310 -1.0
187 314 -1.0
187 318 -1.0
187 322 -1.0
187 326 -1.0
187 330 -1.0
187 334 -1.0
187 641 1.0
188 436 -1.0
188 442 -1.0
188 448 -1.0
188 454 -1.0
188 460 -1.0
188 466 -1.0
188 472 -1.0
188 478 -1.0
188 484 -1.0
188 490 -1.0
188 496 -1.0
188 502 -1.0
188 642 1.0
189 530 -1.0
189 534 -1.0
189 538 -1.0
189 542 -1.0
189 546 -1.0
189 550 -1.0
189 554 -1.0
189 558 -1.0
189 562 -1.0
189 566 -1.0
189 570 -1.0
189 574 -1.0
189 643 1.0
190 576 -1.0
190 578 -1.0
190 580 -1.0
190 582 -1.0
190 584 -1.0
190 586 -1.0
190 588 -1.0
190 590 -1.0
190 592 -1.0
190 594 -1.0
190 596 -1.0
190 598 -1.0
190 644 1.0
191 645 1.0
191 646 1.0
191 647 1.0
191 648 1.0
191 649 1.0
191 650 1.0
191 651 1.0
191 652 1.0
191 653 1.0
191 654 1.0
191 655 1.0
191 656 1.0
191 657 1.0
191 658 1.0
191 659 1.0
191 660 1.0
191 661 1.0
191 662 1.0
191 663 1.0
191 664 1.0
191 665 1.0
191 666 1.0
191 667 1.0
191 668 1.0
191 669 1.0
191 670 1.0
191 671 1.0
191 672 1.0
191 673 1.0
191 674 1.0
191 675 1.0
191 676 1.0
191 677 1.0
191 678 1.0
191 679 1.0
191 680 1.0
191 681 1.0
191 682 1.0
191 683 1.0
191 684 1.0
191 685 1.0
191 686 1.0
191 687 1.0
191 688 1.0
191 689 1.0
191 690 1.0
192 1 -293.0
192 47 1.0
192 61 1.0
192 75 1.0
192 89 1.0
192 103 1.0
192 117 1.0
192 131 1.0
192 145 1.0
192 159 1.0
192 173 1.0
192 187 1.0
192 201 1.0
193 2 -192.0
193 48 1.0
193 62 1.0
193 76 1.0
193 90 1.0
193 104 1.0
193 118 1.0
193 132 1.0
193 146 1.0
193 160 1.0
193 174 1.0
193 188 1.0
193 202 1.0
194 3 -417.0
194 49 1.0
194 63 1.0
194 77 1.0
194 91 1.0
194 105 1.0
194 119 1.0
194 133 1.0
194 147 1.0
194 161 1.0
194 175 1.0
194 189 1.0
194 203 1.0
195 4 -427.0
195 50 1.0
195 64 1.0
195 78 1.0
195 92 1.0
195 106 1.0
195 120 1.0
195 134 1.0
195 148 1.0
195 162 1.0
195 176 1.0
195 190 1.0
195 204 1.0
196 5 -295.0
196 51 1.0
196 65 1.0
196 79 1.0
196 93 1.0
196 107 1.0
196 121 1.0
196 135 1.0
196 149 1.0
196 163 1.0
196 177 1.0
196 191 1.0
196 205 1.0
197 6 -280.0
197 52 1.0
197 66 1.0
197 80 1.0
197 94 1.0
197 108 1.0
197 122 1.0
197 136 1.0
197 150 1.0
197 164 1.0
197 178 1.0
197 192 1.0
197 206 1.0
198 7 -337.0
198 53 1.0
198 67 1.0
198 81 1.0
198 95 1.0
198 109 1.0
198 123 1.0
198 137 1.0
198 151 1.0
198 165 1.0
198 179 1.0
198 193 1.0
198 207 1.0
199 8 -293.0
199 54 1.0
199 68 1.0
199 82 1.0
199 96 1.0
199 110 1.0
199 124 1.0
199 138 1.0
199 152 1.0
199 166 1.0
199 180 1.0
199 194 1.0
199 208 1.0
200 9 -341.0
200 215 1.0
200 221 1.0
200 227 1.0
200 233 1.0
200 239 1.0
200 245 1.0
200 251 1.0
200 257 1.0
200 263 1.0
200 269 1.0
200 275 1.0
200 281 1.0
201 10 -276.0
201 216 1.0
201 222 1.0
201 228 1.0
201 234 1.0
201 240 1.0
201 246 1.0
201 252 1.0
201 258 1.0
201 264 1.0
201 270 1.0
201 276 1.0
201 282 1.0
202 11 -119.0
202 217 1.0
202 223 1.0
202 229 1.0
202 235 1.0
202 241 1.0
202 247 1.0
202 253 1.0
202 259 1.0
202 265 1.0
202 271 1.0
202 277 1.0
202 283 1.0
203 12 -192.0
203 55 1.0
203 69 1.0
203 83 1.0
203 97 1.0
203 111 1.0
203 125 1.0
203 139 1.0
203 153 1.0
203 167 1.0
203 181 1.0
203 195 1.0
203 209 1.0
204 13 -347.0
204 287 1.0
204 291 1.0
204 295 1.0
204 299 1.0
204 303 1.0
204 307 1.0
204 311 1.0
204 315 1.0
204 319 1.0
204 323 1.0
204 327 1.0
204 331 1.0
205 14 -398.0
205 288 1.0
205 292 1.0
205 296 1.0
205 300 1.0
205 304 1.0
205 308 1.0
205 312 1.0
205 316 1.0
205 320 1.0
205 324 1.0
205 328 1.0
205 332 1.0
206 15 -359.0
206 335 1.0
206 337 1.0
206 339 1.0
206 341 1.0
206 343 1.0
206 345 1.0
206 347 1.0
206 349 1.0
206 351 1.0
206 353 1.0
206 355 1.0
206 357 1.0
207 16 -417.0
207 56 1.0
207 70 1.0
207 84 1.0
207 98 1.0
207 112 1.0
207 126 1.0
207 140 1.0
207 154 1.0
207 168 1.0
207 182 1.0
207 196 1.0
207 210 1.0
208 17 -359.0
208 336 1.0
208 338 1.0
208 340 1.0
208 342 1.0
208 344 1.0
208 346 1.0
208 348 1.0
208 350 1.0
208 352 1.0
208 354 1.0
208 356 1.0
208 358 1.0
209 18 -193.0
209 359 1.0
209 361 1.0
209 363 1.0
209 365 1.0
209 367 1.0
209 369 1.0
209 371 1.0
209 373 1.0
209 375 1.0
209 377 1.0
209 379 1.0
209 381 1.0
210 19 -427.0
210 57 1.0
210 71 1.0
210 85 1.0
210 99 1.0
210 113 1.0
210 127 1.0
210 141 1.0
210 155 1.0
210 169 1.0
210 183 1.0
210 197 1.0
210 211 1.0
211 20 -347.0
211 289 1.0
211 293 1.0
211 297 1.0
211 301 1.0
211 305 1.0
211 309 1.0
211 313 1.0
211 317 1.0
211 321 1.0
211 325 1.0
211 329 1.0
211 333 1.0
212 21 -218.0
212 383 1.0
212 385 1.0
212 387 1.0
212 389 1.0
212 391 1.0
212 393 1.0
212 395 1.0
212 397 1.0
212 399 1.0
212 401 1.0
212 403 1.0
212 405 1.0
213 22 -295.0
213 58 1.0
213 72 1.0
213 86 1.0
213 100 1.0
213 114 1.0
213 128 1.0
213 142 1.0
213 156 1.0
213 170 1.0
213 184 1.0
213 198 1.0
213 212 1.0
214 23 -341.0
214 218 1.0
214 224 1.0
214 230 1.0
214 236 1.0
214 242 1.0
214 248 1.0
214 254 1.0
214 260 1.0
214 266 1.0
214 272 1.0
214 278 1.0
214 284 1.0
215 24 -218.0
215 384 1.0
215 386 1.0
215 388 1.0
215 390 1.0
215 392 1.0
215 394 1.0
215 396 1.0
215 398 1.0
215 400 1.0
215 402 1.0
215 404 1.0
215 406 1.0
216 25 -134.0
216 407 1.0
216 409 1.0
216 411 1.0
216 413 1.0
216 415 1.0
216 417 1.0
216 419 1.0
216 421 1.0
216 423 1.0
216 425 1.0
216 427 1.0
216 429 1.0
217 26 -276.0
217 219 1.0
217 225 1.0
217 231 1.0
217 237 1.0
217 243 1.0
217 249 1.0
217 255 1.0
217 261 1.0
217 267 1.0
217 273 1.0
217 279 1.0
217 285 1.0
218 27 -134.0
218 408 1.0
218 410 1.0
218 412 1.0
218 414 1.0
218 416 1.0
218 418 1.0
218 420 1.0
218 422 1.0
218 424 1.0
218 426 1.0
218 428 1.0
218 430 1.0
219 28 -200.0
219 431 1.0
219 437 1.0
219 443 1.0
219 449 1.0
219 455 1.0
219 461 1.0
219 467 1.0
219 473 1.0
219 479 1.0
219 485 1.0
219 491 1.0
219 497 1.0
220 29 -222.0
220 432 1.0
220 438 1.0
220 444 1.0
220 450 1.0
220 456 1.0
220 462 1.0
220 468 1.0
220 474 1.0
220 480 1.0
220 486 1.0
220 492 1.0
220 498 1.0
221 30 -196.0
221 433 1.0
221 439 1.0
221 445 1.0
221 451 1.0
221 457 1.0
221 463 1.0
221 469 1.0
221 475 1.0
221 481 1.0
221 487 1.0
221 493 1.0
221 499 1.0
222 31 -200.0
222 434 1.0
222 440 1.0
222 446 1.0
222 452 1.0
222 458 1.0
222 464 1.0
222 470 1.0
222 476 1.0
222 482 1.0
222 488 1.0
222 494 1.0
222 500 1.0
223 32 -129.0
223 503 1.0
223 505 1.0
223 507 1.0
223 509 1.0
223 511 1.0
223 513 1.0
223 515 1.0
223 517 1.0
223 519 1.0
223 521 1.0
223 523 1.0
223 525 1.0
224 33 -280.0
224 59 1.0
224 73 1.0
224 87 1.0
224 101 1.0
224 115 1.0
224 129 1.0
224 143 1.0
224 157 1.0
224 171 1.0
224 185 1.0
224 199 1.0
224 213 1.0
225 34 -129.0
225 504 1.0
225 506 1.0
225 508 1.0
225 510 1.0
225 512 1.0
225 514 1.0
225 516 1.0
225 518 1.0
225 520 1.0
225 522 1.0
225 524 1.0
225 526 1.0
226 35 -382.0
226 527 1.0
226 531 1.0
226 535 1.0
226 539 1.0
226 543 1.0
226 547 1.0
226 551 1.0
226 555 1.0
226 559 1.0
226 563 1.0
226 567 1.0
226 571 1.0
227 36 -424.0
227 528 1.0
227 532 1.0
227 536 1.0
227 540 1.0
227 544 1.0
227 548 1.0
227 552 1.0
227 556 1.0
227 560 1.0
227 564 1.0
227 568 1.0
227 572 1.0
228 37 -119.0
228 220 1.0
228 226 1.0
228 232 1.0
228 238 1.0
228 244 1.0
228 250 1.0
228 256 1.0
228 262 1.0
228 268 1.0
228 274 1.0
228 280 1.0
228 286 1.0
229 38 -193.0
229 360 1.0
229 362 1.0
229 364 1.0
229 366 1.0
229 368 1.0
229 370 1.0
229 372 1.0
229 374 1.0
229 376 1.0
229 378 1.0
229 380 1.0
229 382 1.0
230 39 -222.0
230 435 1.0
230 441 1.0
230 447 1.0
230 453 1.0
230 459 1.0
230 465 1.0
230 471 1.0
230 477 1.0
230 483 1.0
230 489 1.0
230 495 1.0
230 501 1.0
231 40 -382.0
231 529 1.0
231 533 1.0
231 537 1.0
231 541 1.0
231 545 1.0
231 549 1.0
231 553 1.0
231 557 1.0
231 561 1.0
231 565 1.0
231 569 1.0
231 573 1.0
232 41 -275.0
232 575 1.0
232 577 1.0
232 579 1.0
232 581 1.0
232 583 1.0
232 585 1.0
232 587 1.0
232 589 1.0
232 591 1.0
232 593 1.0
232 595 1.0
232 597 1.0
233 42 -337.0
233 60 1.0
233 74 1.0
233 88 1.0
233 102 1.0
233 116 1.0
233 130 1.0
233 144 1.0
233 158 1.0
233 172 1.0
233 186 1.0
233 200 1.0
233 214 1.0
234 43 -398.0
234 290 1.0
234 294 1.0
234 298 1.0
234 302 1.0
234 306 1.0
234 310 1.0
234 314 1.0
234 318 1.0
234 322 1.0
234 326 1.0
234 330 1.0
234 334 1.0
235 44 -196.0
235 436 1.0
235 442 1.0
235 448 1.0
235 454 1.0
235 460 1.0
235 466 1.0
235 472 1.0
235 478 1.0
235 484 1.0
235 490 1.0
235 496 1.0
235 502 1.0
236 45 -424.0
236 530 1.0
236 534 1.0
236 538 1.0
236 542 1.0
236 546 1.0
236 550 1.0
236 554 1.0
236 558 1.0
236 562 1.0
236 566 1.0
236 570 1.0
236 574 1.0
237 46 -275.0
237 576 1.0
237 578 1.0
237 580 1.0
237 582 1.0
237 584 1.0
237 586 1.0
237 588 1.0
237 590 1.0
237 592 1.0
237 594 1.0
237 596 1.0
237 598 1.0
1.79769313486232E+308 # value for infinity
-1.79769313486232E+308 # default left-hand-side value
190 # number of non-default left-hand-sides
1 -149.0
2 20.0
3 13.0
4 11.0
5 13.0
6 11.0
7 18.0
8 19.0
9 14.0
10 15.0
11 20.0
12 22.0
13 12.0
14 -178.0
15 7.0
16 6.0
17 25.0
18 25.0
19 25.0
20 23.0
21 8.0
22 7.0
23 20.0
24 14.0
25 6.0
26 21.0
27 -157.0
28 25.0
29 18.0
30 23.0
31 22.0
32 19.0
33 18.0
34 21.0
35 24.0
36 16.0
37 18.0
38 24.0
39 9.0
40 -183.0
41 12.0
42 16.0
43 6.0
44 14.0
45 23.0
46 14.0
47 18.0
48 24.0
49 5.0
50 12.0
51 19.0
52 22.0
53 -179.0
54 22.0
55 9.0
56 6.0
57 6.0
58 21.0
59 6.0
60 22.0
61 13.0
62 12.0
63 23.0
64 16.0
65 7.0
66 -178.0
67 19.0
68 25.0
69 13.0
70 17.0
71 24.0
72 8.0
73 9.0
74 20.0
75 21.0
76 22.0
77 6.0
78 8.0
79 -162.0
80 22.0
81 19.0
82 17.0
83 11.0
84 16.0
85 23.0
86 11.0
87 21.0
88 23.0
89 13.0
90 18.0
91 8.0
92 -176.0
93 12.0
94 15.0
95 7.0
96 22.0
97 21.0
98 10.0
99 7.0
100 14.0
101 14.0
102 11.0
103 15.0
104 16.0
105 -139.0
106 25.0
107 23.0
108 14.0
109 12.0
110 21.0
111 10.0
112 19.0
113 23.0
114 17.0
115 11.0
116 13.0
117 11.0
118 -191.0
119 18.0
120 15.0
121 15.0
122 13.0
123 6.0
124 13.0
125 25.0
126 13.0
127 14.0
128 14.0
129 9.0
130 19.0
131 -193.0
132 17.0
133 15.0
134 14.0
135 21.0
136 12.0
137 23.0
138 14.0
139 15.0
140 5.0
141 6.0
142 20.0
143 22.0
144 -190.0
145 0.0
146 0.0
147 0.0
148 0.0
149 0.0
150 0.0
151 0.0
152 0.0
153 0.0
154 0.0
155 0.0
156 0.0
157 0.0
158 0.0
159 0.0
160 0.0
161 0.0
162 0.0
163 0.0
164 0.0
165 0.0
166 0.0
167 0.0
168 0.0
169 0.0
170 0.0
171 0.0
172 0.0
173 0.0
174 0.0
175 0.0
176 0.0
177 0.0
178 0.0
179 0.0
180 0.0
181 0.0
182 0.0
183 0.0
184 0.0
185 0.0
186 0.0
187 0.0
188 0.0
189 0.0
190 0.0
0.0 # default right-hand-side value
191 # number of non-default right-hand-sides
1 -149.0
2 20.0
3 13.0
4 11.0
5 13.0
6 11.0
7 18.0
8 19.0
9 14.0
10 15.0
11 20.0
12 22.0
13 12.0
14 -178.0
15 7.0
16 6.0
17 25.0
18 25.0
19 25.0
20 23.0
21 8.0
22 7.0
23 20.0
24 14.0
25 6.0
26 21.0
27 -157.0
28 25.0
29 18.0
30 23.0
31 22.0
32 19.0
33 18.0
34 21.0
35 24.0
36 16.0
37 18.0
38 24.0
39 9.0
40 -183.0
41 12.0
42 16.0
43 6.0
44 14.0
45 23.0
46 14.0
47 18.0
48 24.0
49 5.0
50 12.0
51 19.0
52 22.0
53 -179.0
54 22.0
55 9.0
56 6.0
57 6.0
58 21.0
59 6.0
60 22.0
61 13.0
62 12.0
63 23.0
64 16.0
65 7.0
66 -178.0
67 19.0
68 25.0
69 13.0
70 17.0
71 24.0
72 8.0
73 9.0
74 20.0
75 21.0
76 22.0
77 6.0
78 8.0
79 -162.0
80 22.0
81 19.0
82 17.0
83 11.0
84 16.0
85 23.0
86 11.0
87 21.0
88 23.0
89 13.0
90 18.0
91 8.0
92 -176.0
93 12.0
94 15.0
95 7.0
96 22.0
97 21.0
98 10.0
99 7.0
100 14.0
101 14.0
102 11.0
103 15.0
104 16.0
105 -139.0
106 25.0
107 23.0
108 14.0
109 12.0
110 21.0
111 10.0
112 19.0
113 23.0
114 17.0
115 11.0
116 13.0
117 11.0
118 -191.0
119 18.0
120 15.0
121 15.0
122 13.0
123 6.0
124 13.0
125 25.0
126 13.0
127 14.0
128 14.0
129 9.0
130 19.0
131 -193.0
132 17.0
133 15.0
134 14.0
135 21.0
136 12.0
137 23.0
138 14.0
139 15.0
140 5.0
141 6.0
142 20.0
143 22.0
144 -190.0
145 1.79769313486232E+308
146 1.79769313486232E+308
147 1.79769313486232E+308
148 1.79769313486232E+308
149 1.79769313486232E+308
150 1.79769313486232E+308
151 1.79769313486232E+308
152 1.79769313486232E+308
153 1.79769313486232E+308
154 1.79769313486232E+308
155 1.79769313486232E+308
156 1.79769313486232E+308
157 1.79769313486232E+308
158 1.79769313486232E+308
159 1.79769313486232E+308
160 1.79769313486232E+308
161 1.79769313486232E+308
162 1.79769313486232E+308
163 1.79769313486232E+308
164 1.79769313486232E+308
165 1.79769313486232E+308
166 1.79769313486232E+308
167 1.79769313486232E+308
168 1.79769313486232E+308
169 1.79769313486232E+308
170 1.79769313486232E+308
171 1.79769313486232E+308
172 1.79769313486232E+308
173 1.79769313486232E+308
174 1.79769313486232E+308
175 1.79769313486232E+308
176 1.79769313486232E+308
177 1.79769313486232E+308
178 1.79769313486232E+308
179 1.79769313486232E+308
180 1.79769313486232E+308
181 1.79769313486232E+308
182 1.79769313486232E+308
183 1.79769313486232E+308
184 1.79769313486232E+308
185 1.79769313486232E+308
186 1.79769313486232E+308
187 1.79769313486232E+308
188 1.79769313486232E+308
189 1.79769313486232E+308
190 1.79769313486232E+308
191 6225.0
0.0 # default variable lower bound value
0 # number of non-default variable lower bounds
1.79769313486232E+308 # default variable upper bound value
46 # number of non-default variable upper bounds
1 1.0
2 1.0
3 1.0
4 1.0
5 1.0
6 1.0
7 1.0
8 1.0
9 1.0
10 1.0
11 1.0
12 1.0
13 1.0
14 1.0
15 1.0
16 1.0
17 1.0
18 1.0
19 1.0
20 1.0
21 1.0
22 1.0
23 1.0
24 1.0
25 1.0
26 1.0
27 1.0
28 1.0
29 1.0
30 1.0
31 1.0
32 1.0
33 1.0
34 1.0
35 1.0
36 1.0
37 1.0
38 1.0
39 1.0
40 1.0
41 1.0
42 1.0
43 1.0
44 1.0
45 1.0
46 1.0
0 # default variable type
46 # number of non-default variable types
1 1
2 1
3 1
4 1
5 1
6 1
7 1
8 1
9 1
10 1
11 1
12 1
13 1
14 1
15 1
16 1
17 1
18 1
19 1
20 1
21 1
22 1
23 1
24 1
25 1
26 1
27 1
28 1
29 1
30 1
31 1
32 1
33 1
34 1
35 1
36 1
37 1
38 1
39 1
40 1
41 1
42 1
43 1
44 1
45 1
46 1
0.0 # default variable primal value in starting point
0 # number of non-default variable primal values in starting point
0.0 # default constraint dual value in starting point
0 # number of non-default constraint dual values in starting point
0.0 # default variable bound dual value in starting point
0 # number of non-default variable bound dual values in starting point
0 # number of non-default variable names
0 # number of non-default constraint names
